NAME          MPSXNAME
ROWS
 N  X74     
 L  X75     
 L  X76     
 E  X77     
 E  X78     
 E  X79     
 E  X80     
 L  X81     
 L  X82     
 L  X83     
 L  X84     
 L  X85     
 L  X86     
 L  X87     
 L  X88     
 E  X89     
 E  X90     
 E  X91     
 E  X92     
 E  X93     
 E  X94     
 E  X95     
 E  X96     
 E  X97     
 E  X98     
 E  X99     
 E  X100    
 E  X101    
 E  X102    
 E  X103    
 E  X104    
 E  X105    
 E  X106    
 E  X107    
 E  X108    
 E  X109    
 E  X110    
 L  X111    
 L  X112    
 L  X113    
 L  X114    
 L  X115    
COLUMNS
    X0        X75       -1.000000000
    X0        X76       1.0000000000
    X0        X77       13.010000000
    X0        X80       0.0280000000
    X0        X81       0.7220000000
    X0        X82       -0.273000000
    X0        X85       0.1860000000
    X0        X86       0.2630000000
    X0        X89       0.0250000000
    X0        X90       0.2020000000
    X0        X91       0.8500000000
    X0        X92       -0.250000000
    X0        X93       -0.050000000
    X0        X94       -0.150000000
    X0        X95       -0.050000000
    X0        X96       -0.030000000
    X0        X97       -0.100000000
    X0        X98       -0.030000000
    X0        X99       -0.050000000
    X0        X100      -0.100000000
    X0        X101      0.7500000000
    X0        X102      -0.350000000
    X0        X103      -0.100000000
    X0        X104      -0.250000000
    X0        X105      -0.100000000
    X0        X106      -0.080000000
    X0        X107      -0.150000000
    X0        X108      -0.050000000
    X0        X109      -0.100000000
    X0        X110      -0.150000000
    X1        X75       -1.000000000
    X1        X76       1.0000000000
    X1        X77       12.550000000
    X1        X80       0.0280000000
    X1        X81       -0.278000000
    X1        X82       0.7270000000
    X1        X85       0.1860000000
    X1        X86       0.2630000000
    X1        X89       0.3000000000
    X1        X90       0.4250000000
    X1        X91       -0.150000000
    X1        X92       0.7500000000
    X1        X93       -0.050000000
    X1        X94       -0.150000000
    X1        X95       -0.050000000
    X1        X96       -0.030000000
    X1        X97       -0.100000000
    X1        X98       -0.030000000
    X1        X99       -0.050000000
    X1        X100      -0.100000000
    X1        X101      -0.250000000
    X1        X102      0.6500000000
    X1        X103      -0.100000000
    X1        X104      -0.250000000
    X1        X105      -0.100000000
    X1        X106      -0.080000000
    X1        X107      -0.150000000
    X1        X108      -0.050000000
    X1        X109      -0.100000000
    X1        X110      -0.150000000
    X2        X75       -1.000000000
    X2        X76       1.0000000000
    X2        X77       19.320000000
    X2        X80       0.0330000000
    X2        X81       -0.278000000
    X2        X82       -0.273000000
    X2        X85       -0.814000000
    X2        X86       0.2630000000
    X2        X89       0.4500000000
    X2        X90       -0.008000000
    X2        X91       -0.150000000
    X2        X92       -0.250000000
    X2        X93       0.9500000000
    X2        X94       -0.150000000
    X2        X95       -0.050000000
    X2        X96       -0.030000000
    X2        X97       -0.100000000
    X2        X98       -0.030000000
    X2        X99       -0.050000000
    X2        X100      -0.100000000
    X2        X101      -0.250000000
    X2        X102      -0.350000000
    X2        X103      0.9000000000
    X2        X104      -0.250000000
    X2        X105      -0.100000000
    X2        X106      -0.080000000
    X2        X107      -0.150000000
    X2        X108      -0.050000000
    X2        X109      -0.100000000
    X2        X110      -0.150000000
    X3        X75       -1.000000000
    X3        X76       1.0000000000
    X3        X77       10.530000000
    X3        X80       0.0660000000
    X3        X81       -0.278000000
    X3        X82       -0.273000000
    X3        X85       0.1860000000
    X3        X86       -0.737000000
    X3        X89       0.0600000000
    X3        X90       0.1350000000
    X3        X91       -0.150000000
    X3        X92       -0.250000000
    X3        X93       -0.050000000
    X3        X94       0.8500000000
    X3        X95       -0.050000000
    X3        X96       -0.030000000
    X3        X97       -0.100000000
    X3        X98       -0.030000000
    X3        X99       -0.050000000
    X3        X100      -0.100000000
    X3        X101      -0.250000000
    X3        X102      -0.350000000
    X3        X103      -0.100000000
    X3        X104      0.7500000000
    X3        X105      -0.100000000
    X3        X106      -0.080000000
    X3        X107      -0.150000000
    X3        X108      -0.050000000
    X3        X109      -0.100000000
    X3        X110      -0.150000000
    X4        X75       -1.000000000
    X4        X76       1.0000000000
    X4        X77       13.100000000
    X4        X80       0.0040000000
    X4        X89       -0.150000000
    X4        X90       -0.004000000
    X4        X91       -0.150000000
    X4        X92       -0.250000000
    X4        X93       -0.050000000
    X4        X94       -0.150000000
    X4        X95       0.9500000000
    X4        X96       -0.030000000
    X4        X97       -0.100000000
    X4        X98       -0.030000000
    X4        X99       -0.050000000
    X4        X100      -0.100000000
    X4        X101      -0.250000000
    X4        X102      -0.350000000
    X4        X103      -0.100000000
    X4        X104      -0.250000000
    X4        X105      0.9000000000
    X4        X106      -0.080000000
    X4        X107      -0.150000000
    X4        X108      -0.050000000
    X4        X109      -0.100000000
    X4        X110      -0.150000000
    X5        X75       -1.000000000
    X5        X76       1.0000000000
    X5        X77       37.640000000
    X5        X78       15.056000000
    X5        X79       75.710000000
    X5        X80       0.0330000000
    X5        X83       0.7220000000
    X5        X84       -0.273000000
    X5        X87       0.1860000000
    X5        X88       0.2630000000
    X5        X89       -0.150000000
    X5        X90       -0.050000000
    X5        X91       -0.150000000
    X5        X92       -0.250000000
    X5        X93       -0.050000000
    X5        X94       -0.150000000
    X5        X95       -0.050000000
    X5        X96       0.9700000000
    X5        X97       -0.100000000
    X5        X98       -0.030000000
    X5        X99       -0.050000000
    X5        X100      -0.100000000
    X5        X101      -0.250000000
    X5        X102      -0.350000000
    X5        X103      -0.100000000
    X5        X104      -0.250000000
    X5        X105      -0.100000000
    X5        X106      0.9200000000
    X5        X107      -0.150000000
    X5        X108      -0.050000000
    X5        X109      -0.100000000
    X5        X110      -0.150000000
    X6        X75       -1.000000000
    X6        X76       1.0000000000
    X6        X77       23.120000000
    X6        X78       9.2480000000
    X6        X79       37.920000000
    X6        X80       0.0990000000
    X6        X83       -0.278000000
    X6        X84       0.7270000000
    X6        X87       0.1860000000
    X6        X88       0.2630000000
    X6        X89       -0.150000000
    X6        X90       -0.050000000
    X6        X91       -0.150000000
    X6        X92       -0.250000000
    X6        X93       -0.050000000
    X6        X94       -0.150000000
    X6        X95       -0.050000000
    X6        X96       -0.030000000
    X6        X97       0.9000000000
    X6        X98       -0.030000000
    X6        X99       -0.050000000
    X6        X100      -0.100000000
    X6        X101      -0.250000000
    X6        X102      -0.350000000
    X6        X103      -0.100000000
    X6        X104      -0.250000000
    X6        X105      -0.100000000
    X6        X106      -0.080000000
    X6        X107      0.8500000000
    X6        X108      -0.050000000
    X6        X109      -0.100000000
    X6        X110      -0.150000000
    X7        X75       -1.000000000
    X7        X76       1.0000000000
    X7        X77       114.00000000
    X7        X78       45.600000000
    X7        X79       229.29000000
    X7        X80       0.0750000000
    X7        X83       -0.278000000
    X7        X84       -0.273000000
    X7        X87       -0.814000000
    X7        X88       0.2630000000
    X7        X89       -0.150000000
    X7        X90       -0.050000000
    X7        X91       -0.150000000
    X7        X92       -0.250000000
    X7        X93       -0.050000000
    X7        X94       -0.150000000
    X7        X95       -0.050000000
    X7        X96       -0.030000000
    X7        X97       -0.100000000
    X7        X98       0.9700000000
    X7        X99       -0.050000000
    X7        X100      -0.100000000
    X7        X101      -0.250000000
    X7        X102      -0.350000000
    X7        X103      -0.100000000
    X7        X104      -0.250000000
    X7        X105      -0.100000000
    X7        X106      -0.080000000
    X7        X107      -0.150000000
    X7        X108      0.9500000000
    X7        X109      -0.100000000
    X7        X110      -0.150000000
    X8        X75       -1.000000000
    X8        X76       1.0000000000
    X8        X77       24.180000000
    X8        X78       9.6720000000
    X8        X79       55.320000000
    X8        X80       0.2090000000
    X8        X83       -0.278000000
    X8        X84       -0.273000000
    X8        X87       0.1860000000
    X8        X88       -0.737000000
    X8        X89       -0.150000000
    X8        X90       -0.050000000
    X8        X91       -0.150000000
    X8        X92       -0.250000000
    X8        X93       -0.050000000
    X8        X94       -0.150000000
    X8        X95       -0.050000000
    X8        X96       -0.030000000
    X8        X97       -0.100000000
    X8        X98       -0.030000000
    X8        X99       0.9500000000
    X8        X100      -0.100000000
    X8        X101      -0.250000000
    X8        X102      -0.350000000
    X8        X103      -0.100000000
    X8        X104      -0.250000000
    X8        X105      -0.100000000
    X8        X106      -0.080000000
    X8        X107      -0.150000000
    X8        X108      -0.050000000
    X8        X109      0.9000000000
    X8        X110      -0.150000000
    X9        X75       -1.000000000
    X9        X76       1.0000000000
    X9        X77       35.000000000
    X9        X78       14.000000000
    X9        X79       58.980000000
    X9        X80       0.0370000000
    X9        X89       -0.150000000
    X9        X90       -0.050000000
    X9        X91       -0.150000000
    X9        X92       -0.250000000
    X9        X93       -0.050000000
    X9        X94       -0.150000000
    X9        X95       -0.050000000
    X9        X96       -0.030000000
    X9        X97       -0.100000000
    X9        X98       -0.030000000
    X9        X99       -0.050000000
    X9        X100      0.9000000000
    X9        X101      -0.250000000
    X9        X102      -0.350000000
    X9        X103      -0.100000000
    X9        X104      -0.250000000
    X9        X105      -0.100000000
    X9        X106      -0.080000000
    X9        X107      -0.150000000
    X9        X108      -0.050000000
    X9        X109      -0.100000000
    X9        X110      0.8500000000
    X10       X112      1.0000000000
    X11       X114      1.0000000000
    X12       X75       -1.000000000
    X12       X111      1.0000000000
    X13       X76       -1.000000000
    X13       X111      1.0000000000
    X14       X77       1.0000000000
    X15       X77       -1.000000000
    X15       X112      1.0000000000
    X16       X78       1.0000000000
    X17       X78       -1.000000000
    X18       X79       1.0000000000
    X19       X79       -1.000000000
    X20       X80       1.0000000000
    X20       X114      1.0000000000
    X21       X80       -1.000000000
    X22       X81       -1.000000000
    X22       X115      1.0000000000
    X23       X82       -1.000000000
    X23       X115      1.0000000000
    X24       X83       -1.000000000
    X24       X115      1.0000000000
    X25       X84       -1.000000000
    X25       X115      1.0000000000
    X26       X85       -1.000000000
    X26       X115      1.0000000000
    X27       X86       -1.000000000
    X27       X115      1.0000000000
    X28       X87       -1.000000000
    X28       X115      1.0000000000
    X29       X88       -1.000000000
    X29       X115      1.0000000000
    X30       X89       1.0000000000
    X31       X74       1.0000000000
    X31       X89       -1.000000000
    X32       X90       1.0000000000
    X33       X74       1.0000000000
    X33       X90       -1.000000000
    X34       X91       1.0000000000
    X34       X113      1.0000000000
    X35       X92       1.0000000000
    X35       X113      1.0000000000
    X36       X93       1.0000000000
    X36       X113      1.0000000000
    X37       X94       1.0000000000
    X37       X113      1.0000000000
    X38       X95       1.0000000000
    X38       X113      1.0000000000
    X39       X96       1.0000000000
    X39       X113      1.0000000000
    X40       X97       1.0000000000
    X40       X113      1.0000000000
    X41       X98       1.0000000000
    X41       X113      1.0000000000
    X42       X99       1.0000000000
    X42       X113      1.0000000000
    X43       X100      1.0000000000
    X43       X113      1.0000000000
    X44       X91       -1.000000000
    X45       X92       -1.000000000
    X46       X93       -1.000000000
    X47       X94       -1.000000000
    X48       X95       -1.000000000
    X49       X96       -1.000000000
    X50       X97       -1.000000000
    X51       X98       -1.000000000
    X52       X99       -1.000000000
    X53       X100      -1.000000000
    X54       X101      1.0000000000
    X55       X102      1.0000000000
    X56       X103      1.0000000000
    X57       X104      1.0000000000
    X58       X105      1.0000000000
    X59       X106      1.0000000000
    X60       X107      1.0000000000
    X61       X108      1.0000000000
    X62       X109      1.0000000000
    X63       X110      1.0000000000
    X64       X101      -1.000000000
    X64       X113      1.0000000000
    X65       X102      -1.000000000
    X65       X113      1.0000000000
    X66       X103      -1.000000000
    X66       X113      1.0000000000
    X67       X104      -1.000000000
    X67       X113      1.0000000000
    X68       X105      -1.000000000
    X68       X113      1.0000000000
    X69       X106      -1.000000000
    X69       X113      1.0000000000
    X70       X107      -1.000000000
    X70       X113      1.0000000000
    X71       X108      -1.000000000
    X71       X113      1.0000000000
    X72       X109      -1.000000000
    X72       X113      1.0000000000
    X73       X110      -1.000000000
    X73       X113      1.0000000000
RHS
    ..RHS     X75       -7500.000000
    ..RHS     X76       10500.000000
    ..RHS     X77       200000.00000
    ..RHS     X79       193261.00000
    ..RHS     X80       550.00000000
    ..RHS     X115      1885.9734504
ENDATA
